c A SAT instance generated from a 3-CNF formula that had 30 clauses and 5 variables
p cnf 5 30
1 -4 5 0
2 -5 -3 0
-4 -3 -2 0
-4 1 -5 0
3 1 -4 0
1 2 -3 0
3 5 -2 0
2 5 -4 0
2 1 -3 0
-1 -5 -2 0
1 -2 -4 0
1 4 -2 0
-1 -2 -4 0
5 -3 -1 0
4 3 5 0
-1 -2 4 0
-3 1 2 0
2 -4 -1 0
3 -2 -5 0
2 4 5 0
-4 3 -2 0
4 -5 -2 0
-2 1 5 0
-1 -5 -4 0
4 -5 2 0
1 -5 -4 0
-5 -1 -2 0
-1 -5 3 0
-4 -5 1 0
-1 5 -3 0
%
0

29 3 2 30 27
